0 0 0 0
0 1 0 0
0 2 1 0
0 3 0 0
0 4 2 3
0 5 1 5
0 6 0 1
0 7 0 3
0 8 0 8
0 9 1 3
0 10 0 12
0 11 0 5
0 12 0 9
0 13 2 11
0 14 0 9
0 15 2 7
0 16 1 21
0 17 0 12
0 18 2 21
0 19 0 7
0 20 1 9
0 21 1 15
0 22 2 16
0 23 0 20
0 24 2 15
0 25 1 17
0 26 0 28
0 27 0 25
0 28 0 25
0 29 0 22
0 30 0 31
0 31 0 33
